p cnf 21 48
6 1 0 6 3 0 -6 -1 -3 0
7 1 0 7 3 0 -7 -1 -3 0
8 3 0 8 4 0 -8 -3 -4 0
9 3 0 9 4 0 -9 -3 -4 0
10 8 0 10 2 0 -10 -8 -2 0
11 9 0 11 2 0 -11 -9 -2 0
12 8 0 12 5 0 -12 -8 -5 0
13 9 0 13 5 0 -13 -9 -5 0
14 10 0 14 6 0 -14 -10 -6 0
15 11 0 15 7 0 -15 -11 -7 0
16 10 0 16 12 0 -16 -10 -12 0
17 11 0 17 13 0 -17 -11 -13 0
-18 14 15 0 -18 -14 -15 0 18 14 -15 0 18 -14 15 0
-19 16 17 0 -19 -16 -17 0 19 16 -17 0 19 -16 17 0
-18 20 0 18 -20 0
-19 21 0 19 -21 0
